
Gurobi 11.0.3 (linux64) logging started Sat Nov 23 22:53:02 2024

Set parameter LogFile to value "/home/yihong/Coding/OR_SUC/SUC_results_bigM100000_thread4/case24_ieee_rts_theta0.1_epsilon0.025_gurobi_seed770000_num_gen100_N_WDR150_load_scaling_factor1_exact_T24quadra_cost.txt"
Set parameter TimeLimit to value 3600
Gurobi Optimizer version 11.0.3 build v11.0.3rc0 (linux64 - "Ubuntu 20.04.6 LTS")

CPU model: AMD EPYC 7532 32-Core Processor, instruction set [SSE2|AVX|AVX2]
Thread count: 64 physical cores, 128 logical processors, using up to 4 threads

Optimize a model with 54015 rows, 30061 columns and 917478 nonzeros
Model fingerprint: 0xb3f4a548
Model has 2400 quadratic constraints
Variable types: 27511 continuous, 2550 integer (2550 binary)
Coefficient statistics:
  Matrix range     [3e-04, 1e+05]
  QMatrix range    [2e-03, 8e-03]
  QLMatrix range   [2e-01, 6e+01]
  Objective range  [1e+00, 1e+00]
  Bounds range     [1e+00, 1e+00]
  RHS range        [1e+00, 1e+05]
Presolve removed 43816 rows and 12867 columns
Presolve time: 0.30s
Presolved: 10199 rows, 17194 columns, 55002 nonzeros
Presolved model has 2400 quadratic constraint(s)
Variable types: 14695 continuous, 2499 integer (2499 binary)

Root relaxation: objective 3.929261e+04, 8310 iterations, 0.23 seconds (0.33 work units)

    Nodes    |    Current Node    |     Objective Bounds      |     Work
 Expl Unexpl |  Obj  Depth IntInf | Incumbent    BestBd   Gap | It/Node Time

     0     0 39292.6075    0   30          - 39292.6075      -     -    0s
     0     0 341710.619    0  716          - 341710.619      -     -    1s
     0     0 384191.089    0  690          - 384191.089      -     -    1s
     0     0 621200.965    0  681          - 621200.965      -     -    1s
     0     0 621227.428    0  422          - 621227.428      -     -    1s
     0     0 621897.543    0  370          - 621897.543      -     -    1s
     0     0 621913.971    0  372          - 621913.971      -     -    1s
     0     0 622096.376    0  367          - 622096.376      -     -    1s
     0     0 622096.650    0  367          - 622096.650      -     -    2s
     0     2 622096.650    0  367          - 622096.650      -     -    2s
H  539   242                    622918.42166 622170.546  0.12%  32.6    4s
*  539   242             165    622918.42166 622170.546  0.12%  32.6    4s
   571   203 622415.974    4  381 622918.422 622237.750  0.11%  31.4    5s

Cutting planes:
  Implied bound: 338
  MIR: 97
  Flow cover: 109
  RLT: 1

Explored 584 nodes (41354 simplex iterations) in 5.61 seconds (7.11 work units)
Thread count was 4 (of 128 available processors)

Solution count 2: 622918 622918 

Optimal solution found (tolerance 1.00e-03)
Warning: max constraint violation (1.5752e-07) exceeds tolerance
Best objective 6.229184216692e+05, best bound 6.223360772508e+05, gap 0.0935%
